c SAT Generator for power-law distributed variable frequencies
c -g u -v 20 -c 91 -k 3 -p 2.750000 -b 3.200000 -f /home/schmidt/Devel/ni-kop-sat/data/ensemble/ruf20-91/ruf20-91-475 -u 1 -U 1 -s 3664600896
p cnf 20 91
14 15 -16 0
-1 8 -19 0
-1 -2 -9 0
-9 14 -20 0
-8 14 18 0
-6 -12 20 0
-4 -8 17 0
-1 15 -16 0
-10 13 -20 0
-9 16 17 0
-4 7 16 0
10 11 12 0
2 -3 -9 0
4 5 20 0
-11 -14 15 0
4 -6 -17 0
7 15 -18 0
-6 -7 -9 0
-5 12 14 0
3 6 8 0
1 3 10 0
-4 -18 -20 0
8 12 16 0
6 -15 16 0
-10 13 17 0
10 11 -18 0
-11 14 -16 0
-1 -16 19 0
-2 3 -11 0
1 -6 10 0
-3 13 14 0
-7 9 -13 0
4 -8 -14 0
-1 -5 9 0
-14 19 -20 0
-1 -7 -8 0
3 11 14 0
14 15 20 0
5 10 18 0
5 -7 -12 0
6 9 16 0
-1 -4 11 0
-7 9 -11 0
1 10 -13 0
4 -5 -17 0
-8 -10 15 0
-3 -12 -18 0
10 -15 17 0
1 5 -20 0
4 -6 15 0
-5 7 -8 0
-3 -7 20 0
10 -15 -17 0
10 15 -17 0
-1 -2 -8 0
4 -5 16 0
-11 18 -20 0
9 10 14 0
-3 10 11 0
1 -13 -19 0
4 -14 -20 0
1 -7 -13 0
-2 -9 19 0
6 -16 20 0
4 6 -18 0
-8 -14 17 0
7 -9 -11 0
-1 15 -19 0
6 -10 18 0
-5 11 -20 0
4 7 14 0
2 4 -16 0
2 8 -19 0
1 -16 18 0
-1 16 20 0
4 -16 18 0
14 -19 -20 0
-1 -9 -20 0
5 -16 17 0
-12 15 16 0
13 16 19 0
-4 -5 6 0
1 11 -12 0
3 -13 17 0
7 -11 -19 0
-5 -6 -13 0
-7 9 13 0
-7 -14 20 0
-3 8 -11 0
-14 16 17 0
1 3 -12 0
